c "353531.clq"
p edge 253 3792
e 1 17
e 1 18
e 1 19
e 1 20
e 1 21
e 1 22
e 1 23
e 1 25
e 1 26
e 1 28
e 1 29
e 1 32
e 1 36
e 1 38
e 1 39
e 1 41
e 1 42
e 1 46
e 1 47
e 1 52
e 1 55
e 1 73
e 1 77
e 1 78
e 1 79
e 1 80
e 1 89
e 1 90
e 1 96
e 1 99
e 1 111
e 1 116
e 1 117
e 1 118
e 1 119
e 1 124
e 1 133
e 1 140
e 1 157
e 1 161
e 1 177
e 1 178
e 1 185
e 1 187
e 1 208
e 1 219
e 1 226
e 2 17
e 2 18
e 2 19
e 2 20
e 2 21
e 2 22
e 2 23
e 2 24
e 2 29
e 2 33
e 2 34
e 2 38
e 2 39
e 2 42
e 2 43
e 2 44
e 2 45
e 2 48
e 2 50
e 2 52
e 2 62
e 2 64
e 2 67
e 2 69
e 2 72
e 2 82
e 2 83
e 2 93
e 2 107
e 2 118
e 2 124
e 2 135
e 2 137
e 2 140
e 2 142
e 2 145
e 2 150
e 2 154
e 2 162
e 2 181
e 2 188
e 2 194
e 2 214
e 2 239
e 2 251
e 3 17
e 3 18
e 3 19
e 3 20
e 3 21
e 3 22
e 3 23
e 3 24
e 3 26
e 3 28
e 3 29
e 3 33
e 3 37
e 3 41
e 3 42
e 3 48
e 3 49
e 3 51
e 3 57
e 3 82
e 3 95
e 3 103
e 3 105
e 3 112
e 3 121
e 3 124
e 3 128
e 3 139
e 3 146
e 3 158
e 3 164
e 3 166
e 3 234
e 3 243
e 3 244
e 3 250
e 4 17
e 4 18
e 4 19
e 4 20
e 4 21
e 4 22
e 4 23
e 4 24
e 4 26
e 4 27
e 4 28
e 4 29
e 4 30
e 4 31
e 4 32
e 4 33
e 4 35
e 4 36
e 4 37
e 4 40
e 4 43
e 4 45
e 4 48
e 4 51
e 4 54
e 4 55
e 4 59
e 4 62
e 4 66
e 4 68
e 4 73
e 4 75
e 4 83
e 4 86
e 4 87
e 4 89
e 4 109
e 4 117
e 4 123
e 4 125
e 4 134
e 4 144
e 4 149
e 4 161
e 4 163
e 4 186
e 4 197
e 4 215
e 4 222
e 4 237
e 4 253
e 5 17
e 5 18
e 5 19
e 5 20
e 5 22
e 5 24
e 5 25
e 5 27
e 5 28
e 5 39
e 5 43
e 5 49
e 5 53
e 5 59
e 5 79
e 5 86
e 5 87
e 5 92
e 5 99
e 5 100
e 5 111
e 5 118
e 5 119
e 5 156
e 5 162
e 5 164
e 5 169
e 5 170
e 5 179
e 5 242
e 5 252
e 6 17
e 6 18
e 6 19
e 6 20
e 6 21
e 6 22
e 6 23
e 6 26
e 6 27
e 6 33
e 6 35
e 6 44
e 6 50
e 6 53
e 6 54
e 6 56
e 6 70
e 6 82
e 6 88
e 6 91
e 6 93
e 6 97
e 6 98
e 6 101
e 6 110
e 6 116
e 6 118
e 6 125
e 6 127
e 6 132
e 6 141
e 6 145
e 6 173
e 6 180
e 6 182
e 6 189
e 6 194
e 6 197
e 6 203
e 6 214
e 6 216
e 6 223
e 6 225
e 6 242
e 6 244
e 7 17
e 7 19
e 7 20
e 7 21
e 7 22
e 7 24
e 7 27
e 7 28
e 7 30
e 7 37
e 7 41
e 7 42
e 7 43
e 7 50
e 7 54
e 7 56
e 7 67
e 7 70
e 7 73
e 7 84
e 7 86
e 7 101
e 7 102
e 7 106
e 7 115
e 7 120
e 7 141
e 7 181
e 7 193
e 7 222
e 7 252
e 8 17
e 8 18
e 8 20
e 8 23
e 8 24
e 8 25
e 8 26
e 8 28
e 8 29
e 8 30
e 8 31
e 8 33
e 8 37
e 8 39
e 8 42
e 8 45
e 8 46
e 8 51
e 8 55
e 8 57
e 8 60
e 8 64
e 8 66
e 8 68
e 8 81
e 8 85
e 8 87
e 8 99
e 8 111
e 8 113
e 8 136
e 8 137
e 8 139
e 8 141
e 8 148
e 8 172
e 8 183
e 8 204
e 8 215
e 8 217
e 8 218
e 8 224
e 8 226
e 8 235
e 9 17
e 9 18
e 9 19
e 9 20
e 9 21
e 9 23
e 9 24
e 9 25
e 9 29
e 9 31
e 9 34
e 9 36
e 9 38
e 9 39
e 9 40
e 9 42
e 9 47
e 9 48
e 9 58
e 9 65
e 9 89
e 9 91
e 9 106
e 9 110
e 9 131
e 9 138
e 9 139
e 9 141
e 9 147
e 9 157
e 9 169
e 9 176
e 9 178
e 9 184
e 9 195
e 9 201
e 9 216
e 9 223
e 9 239
e 9 241
e 9 244
e 9 246
e 10 17
e 10 18
e 10 19
e 10 20
e 10 26
e 10 34
e 10 36
e 10 45
e 10 51
e 10 55
e 10 65
e 10 77
e 10 93
e 10 95
e 10 111
e 10 120
e 10 143
e 10 152
e 10 156
e 10 167
e 10 192
e 10 197
e 10 216
e 10 219
e 10 240
e 11 17
e 11 18
e 11 19
e 11 20
e 11 21
e 11 22
e 11 27
e 11 34
e 11 38
e 11 47
e 11 49
e 11 57
e 11 65
e 11 67
e 11 73
e 11 92
e 11 100
e 11 102
e 11 124
e 11 131
e 11 136
e 11 148
e 11 163
e 11 200
e 11 217
e 12 17
e 12 18
e 12 21
e 12 22
e 12 23
e 12 25
e 12 27
e 12 28
e 12 30
e 12 33
e 12 46
e 12 47
e 12 55
e 12 56
e 12 57
e 12 58
e 12 64
e 12 66
e 12 75
e 12 78
e 12 80
e 12 85
e 12 103
e 12 111
e 12 115
e 12 120
e 12 130
e 12 140
e 12 147
e 12 175
e 12 182
e 12 185
e 12 186
e 12 206
e 12 225
e 12 234
e 12 241
e 13 17
e 13 18
e 13 19
e 13 21
e 13 22
e 13 24
e 13 25
e 13 29
e 13 36
e 13 38
e 13 42
e 13 45
e 13 48
e 13 50
e 13 61
e 13 65
e 13 80
e 13 87
e 13 92
e 13 99
e 13 110
e 13 138
e 13 154
e 13 163
e 13 177
e 14 17
e 14 18
e 14 19
e 14 20
e 14 21
e 14 22
e 14 23
e 14 24
e 14 26
e 14 29
e 14 30
e 14 31
e 14 32
e 14 34
e 14 36
e 14 52
e 14 61
e 14 62
e 14 67
e 14 69
e 14 81
e 14 98
e 14 109
e 14 110
e 14 112
e 14 123
e 14 190
e 14 193
e 14 196
e 14 223
e 14 227
e 14 235
e 14 238
e 14 247
e 14 248
e 15 17
e 15 18
e 15 19
e 15 25
e 15 26
e 15 31
e 15 35
e 15 37
e 15 44
e 15 68
e 15 70
e 15 72
e 15 73
e 15 79
e 15 83
e 15 91
e 15 92
e 15 94
e 15 113
e 15 131
e 15 132
e 15 145
e 15 152
e 15 188
e 15 195
e 15 212
e 15 243
e 15 246
e 15 252
e 16 17
e 16 18
e 16 19
e 16 20
e 16 21
e 16 23
e 16 25
e 16 30
e 16 32
e 16 37
e 16 38
e 16 40
e 16 43
e 16 44
e 16 46
e 16 51
e 16 52
e 16 59
e 16 61
e 16 63
e 16 64
e 16 67
e 16 68
e 16 72
e 16 74
e 16 75
e 16 84
e 16 87
e 16 91
e 16 92
e 16 105
e 16 106
e 16 107
e 16 111
e 16 123
e 16 143
e 16 161
e 16 163
e 16 173
e 16 190
e 16 205
e 16 240
e 16 251
e 17 18
e 17 19
e 17 20
e 17 21
e 17 22
e 17 23
e 17 24
e 17 25
e 17 26
e 17 27
e 17 28
e 17 29
e 17 30
e 17 32
e 17 34
e 17 35
e 17 38
e 17 41
e 17 42
e 17 43
e 17 44
e 17 46
e 17 49
e 17 50
e 17 53
e 17 55
e 17 61
e 17 63
e 17 64
e 17 68
e 17 71
e 17 72
e 17 74
e 17 75
e 17 76
e 17 78
e 17 81
e 17 82
e 17 84
e 17 87
e 17 91
e 17 94
e 17 97
e 17 98
e 17 100
e 17 105
e 17 109
e 17 121
e 17 129
e 17 130
e 17 131
e 17 132
e 17 133
e 17 135
e 17 143
e 17 146
e 17 152
e 17 153
e 17 160
e 17 161
e 17 164
e 17 171
e 17 175
e 17 186
e 17 194
e 17 195
e 17 197
e 17 204
e 17 207
e 17 209
e 17 212
e 17 216
e 17 217
e 17 227
e 17 241
e 17 243
e 17 245
e 17 247
e 17 253
e 18 19
e 18 20
e 18 21
e 18 22
e 18 23
e 18 24
e 18 25
e 18 26
e 18 27
e 18 28
e 18 29
e 18 30
e 18 31
e 18 33
e 18 34
e 18 35
e 18 36
e 18 37
e 18 38
e 18 40
e 18 41
e 18 42
e 18 43
e 18 44
e 18 45
e 18 47
e 18 48
e 18 51
e 18 52
e 18 53
e 18 58
e 18 60
e 18 61
e 18 63
e 18 65
e 18 69
e 18 70
e 18 77
e 18 78
e 18 80
e 18 81
e 18 82
e 18 83
e 18 84
e 18 85
e 18 89
e 18 90
e 18 103
e 18 109
e 18 119
e 18 122
e 18 124
e 18 125
e 18 126
e 18 127
e 18 128
e 18 129
e 18 130
e 18 131
e 18 143
e 18 145
e 18 147
e 18 148
e 18 150
e 18 157
e 18 158
e 18 159
e 18 161
e 18 163
e 18 166
e 18 167
e 18 177
e 18 179
e 18 184
e 18 185
e 18 189
e 18 190
e 18 193
e 18 195
e 18 197
e 18 200
e 18 202
e 18 204
e 18 205
e 18 210
e 18 213
e 18 217
e 18 219
e 18 224
e 18 225
e 18 226
e 18 229
e 18 230
e 18 231
e 18 239
e 18 244
e 18 245
e 19 20
e 19 21
e 19 22
e 19 23
e 19 24
e 19 25
e 19 26
e 19 27
e 19 28
e 19 31
e 19 32
e 19 33
e 19 34
e 19 35
e 19 36
e 19 37
e 19 39
e 19 41
e 19 43
e 19 44
e 19 48
e 19 52
e 19 55
e 19 56
e 19 58
e 19 60
e 19 63
e 19 66
e 19 69
e 19 73
e 19 74
e 19 76
e 19 77
e 19 84
e 19 86
e 19 88
e 19 89
e 19 96
e 19 97
e 19 100
e 19 104
e 19 106
e 19 108
e 19 112
e 19 113
e 19 117
e 19 118
e 19 126
e 19 127
e 19 128
e 19 136
e 19 137
e 19 138
e 19 140
e 19 142
e 19 144
e 19 149
e 19 152
e 19 157
e 19 163
e 19 176
e 19 179
e 19 183
e 19 185
e 19 187
e 19 201
e 19 206
e 19 219
e 19 221
e 19 228
e 19 231
e 19 232
e 19 234
e 19 236
e 19 238
e 19 243
e 19 248
e 20 21
e 20 22
e 20 23
e 20 24
e 20 25
e 20 26
e 20 27
e 20 28
e 20 29
e 20 30
e 20 31
e 20 32
e 20 33
e 20 35
e 20 36
e 20 37
e 20 38
e 20 39
e 20 40
e 20 41
e 20 43
e 20 44
e 20 46
e 20 47
e 20 49
e 20 51
e 20 52
e 20 54
e 20 55
e 20 57
e 20 59
e 20 62
e 20 63
e 20 65
e 20 66
e 20 68
e 20 69
e 20 71
e 20 76
e 20 77
e 20 79
e 20 80
e 20 85
e 20 86
e 20 88
e 20 93
e 20 97
e 20 101
e 20 102
e 20 103
e 20 119
e 20 120
e 20 122
e 20 126
e 20 128
e 20 131
e 20 132
e 20 134
e 20 137
e 20 138
e 20 139
e 20 141
e 20 144
e 20 151
e 20 158
e 20 160
e 20 162
e 20 164
e 20 166
e 20 180
e 20 195
e 20 209
e 20 212
e 20 221
e 20 225
e 20 233
e 20 237
e 20 244
e 20 245
e 20 246
e 20 250
e 21 22
e 21 23
e 21 24
e 21 25
e 21 26
e 21 27
e 21 28
e 21 31
e 21 34
e 21 35
e 21 38
e 21 39
e 21 40
e 21 41
e 21 43
e 21 44
e 21 45
e 21 46
e 21 47
e 21 48
e 21 51
e 21 52
e 21 53
e 21 54
e 21 56
e 21 59
e 21 61
e 21 63
e 21 70
e 21 73
e 21 75
e 21 76
e 21 82
e 21 85
e 21 87
e 21 88
e 21 89
e 21 92
e 21 93
e 21 94
e 21 98
e 21 100
e 21 112
e 21 114
e 21 117
e 21 122
e 21 125
e 21 126
e 21 129
e 21 130
e 21 134
e 21 136
e 21 140
e 21 144
e 21 151
e 21 154
e 21 164
e 21 168
e 21 172
e 21 174
e 21 175
e 21 179
e 21 197
e 21 206
e 21 213
e 21 214
e 21 220
e 21 223
e 21 225
e 21 229
e 21 231
e 21 237
e 21 238
e 21 240
e 21 248
e 22 23
e 22 24
e 22 25
e 22 26
e 22 27
e 22 28
e 22 29
e 22 30
e 22 31
e 22 32
e 22 33
e 22 34
e 22 36
e 22 37
e 22 38
e 22 39
e 22 40
e 22 42
e 22 46
e 22 47
e 22 48
e 22 49
e 22 51
e 22 52
e 22 54
e 22 55
e 22 64
e 22 66
e 22 68
e 22 69
e 22 71
e 22 73
e 22 74
e 22 80
e 22 83
e 22 84
e 22 88
e 22 96
e 22 100
e 22 103
e 22 106
e 22 108
e 22 112
e 22 113
e 22 120
e 22 123
e 22 129
e 22 135
e 22 136
e 22 138
e 22 142
e 22 144
e 22 146
e 22 152
e 22 153
e 22 156
e 22 159
e 22 162
e 22 165
e 22 170
e 22 178
e 22 184
e 22 190
e 22 191
e 22 194
e 22 196
e 22 200
e 22 205
e 22 208
e 22 209
e 22 211
e 22 216
e 22 224
e 22 227
e 22 242
e 22 248
e 22 251
e 22 252
e 23 24
e 23 25
e 23 27
e 23 29
e 23 30
e 23 31
e 23 32
e 23 33
e 23 34
e 23 37
e 23 41
e 23 42
e 23 48
e 23 56
e 23 57
e 23 61
e 23 63
e 23 66
e 23 68
e 23 69
e 23 72
e 23 73
e 23 79
e 23 82
e 23 86
e 23 96
e 23 98
e 23 107
e 23 126
e 23 128
e 23 131
e 23 132
e 23 135
e 23 142
e 23 154
e 23 165
e 23 172
e 23 174
e 23 188
e 23 189
e 23 194
e 23 202
e 23 203
e 23 204
e 23 209
e 23 213
e 23 218
e 23 219
e 23 225
e 23 226
e 23 238
e 23 239
e 23 240
e 23 253
e 24 25
e 24 26
e 24 27
e 24 28
e 24 30
e 24 31
e 24 32
e 24 33
e 24 36
e 24 37
e 24 38
e 24 39
e 24 40
e 24 41
e 24 42
e 24 44
e 24 47
e 24 50
e 24 53
e 24 56
e 24 57
e 24 59
e 24 60
e 24 61
e 24 70
e 24 71
e 24 79
e 24 88
e 24 89
e 24 91
e 24 95
e 24 96
e 24 97
e 24 103
e 24 104
e 24 105
e 24 106
e 24 109
e 24 110
e 24 112
e 24 117
e 24 123
e 24 125
e 24 134
e 24 137
e 24 140
e 24 141
e 24 145
e 24 150
e 24 153
e 24 154
e 24 155
e 24 162
e 24 164
e 24 165
e 24 168
e 24 170
e 24 177
e 24 179
e 24 183
e 24 186
e 24 193
e 24 197
e 24 198
e 24 201
e 24 204
e 24 216
e 24 224
e 24 230
e 24 232
e 24 235
e 24 247
e 25 26
e 25 27
e 25 29
e 25 32
e 25 34
e 25 35
e 25 36
e 25 38
e 25 39
e 25 40
e 25 41
e 25 49
e 25 52
e 25 55
e 25 57
e 25 58
e 25 62
e 25 69
e 25 75
e 25 76
e 25 77
e 25 79
e 25 80
e 25 81
e 25 82
e 25 89
e 25 90
e 25 92
e 25 99
e 25 102
e 25 112
e 25 114
e 25 117
e 25 121
e 25 127
e 25 133
e 25 135
e 25 141
e 25 148
e 25 150
e 25 158
e 25 159
e 25 160
e 25 165
e 25 167
e 25 171
e 25 176
e 25 177
e 25 183
e 25 184
e 25 187
e 25 198
e 25 201
e 25 204
e 25 206
e 25 216
e 25 217
e 25 225
e 25 233
e 25 238
e 25 246
e 26 27
e 26 28
e 26 30
e 26 31
e 26 32
e 26 34
e 26 35
e 26 38
e 26 39
e 26 40
e 26 41
e 26 42
e 26 43
e 26 46
e 26 49
e 26 50
e 26 51
e 26 54
e 26 58
e 26 61
e 26 62
e 26 63
e 26 68
e 26 72
e 26 74
e 26 75
e 26 77
e 26 78
e 26 80
e 26 87
e 26 88
e 26 90
e 26 97
e 26 98
e 26 100
e 26 102
e 26 106
e 26 109
e 26 110
e 26 115
e 26 119
e 26 123
e 26 128
e 26 130
e 26 131
e 26 134
e 26 143
e 26 144
e 26 146
e 26 154
e 26 164
e 26 165
e 26 169
e 26 176
e 26 181
e 26 184
e 26 189
e 26 191
e 26 193
e 26 195
e 26 196
e 26 203
e 26 209
e 26 210
e 26 211
e 26 213
e 26 218
e 26 220
e 26 222
e 26 224
e 26 227
e 26 234
e 26 239
e 26 242
e 27 28
e 27 29
e 27 30
e 27 31
e 27 32
e 27 33
e 27 34
e 27 35
e 27 36
e 27 37
e 27 39
e 27 40
e 27 43
e 27 47
e 27 48
e 27 50
e 27 53
e 27 56
e 27 58
e 27 59
e 27 60
e 27 62
e 27 64
e 27 65
e 27 66
e 27 75
e 27 77
e 27 81
e 27 83
e 27 85
e 27 86
e 27 90
e 27 94
e 27 101
e 27 102
e 27 110
e 27 112
e 27 117
e 27 126
e 27 130
e 27 132
e 27 136
e 27 138
e 27 143
e 27 144
e 27 148
e 27 152
e 27 158
e 27 159
e 27 165
e 27 169
e 27 171
e 27 173
e 27 175
e 27 180
e 27 192
e 27 198
e 27 212
e 27 219
e 27 220
e 27 225
e 27 230
e 27 234
e 27 248
e 27 249
e 28 29
e 28 30
e 28 31
e 28 32
e 28 33
e 28 35
e 28 40
e 28 41
e 28 43
e 28 46
e 28 47
e 28 49
e 28 53
e 28 54
e 28 55
e 28 57
e 28 60
e 28 61
e 28 64
e 28 68
e 28 72
e 28 74
e 28 76
e 28 77
e 28 82
e 28 84
e 28 104
e 28 112
e 28 117
e 28 119
e 28 120
e 28 124
e 28 127
e 28 128
e 28 132
e 28 133
e 28 134
e 28 135
e 28 139
e 28 154
e 28 155
e 28 156
e 28 167
e 28 175
e 28 176
e 28 180
e 28 189
e 28 199
e 28 200
e 28 209
e 28 213
e 28 220
e 28 221
e 28 231
e 28 250
e 29 30
e 29 31
e 29 34
e 29 37
e 29 40
e 29 44
e 29 45
e 29 46
e 29 47
e 29 50
e 29 53
e 29 54
e 29 58
e 29 59
e 29 62
e 29 63
e 29 65
e 29 70
e 29 72
e 29 73
e 29 78
e 29 81
e 29 83
e 29 84
e 29 88
e 29 94
e 29 95
e 29 97
e 29 101
e 29 107
e 29 108
e 29 114
e 29 119
e 29 121
e 29 124
e 29 131
e 29 133
e 29 136
e 29 137
e 29 144
e 29 145
e 29 147
e 29 149
e 29 155
e 29 168
e 29 169
e 29 171
e 29 174
e 29 183
e 29 189
e 29 190
e 29 192
e 29 201
e 29 222
e 29 230
e 29 232
e 29 233
e 29 235
e 29 236
e 29 253
e 30 32
e 30 35
e 30 36
e 30 40
e 30 44
e 30 45
e 30 51
e 30 52
e 30 60
e 30 65
e 30 68
e 30 69
e 30 71
e 30 75
e 30 80
e 30 88
e 30 89
e 30 102
e 30 107
e 30 108
e 30 115
e 30 126
e 30 128
e 30 134
e 30 146
e 30 172
e 30 180
e 30 196
e 30 197
e 30 200
e 30 204
e 30 216
e 30 226
e 30 232
e 30 236
e 30 248
e 30 249
e 31 32
e 31 33
e 31 34
e 31 35
e 31 36
e 31 38
e 31 39
e 31 41
e 31 42
e 31 43
e 31 44
e 31 48
e 31 49
e 31 53
e 31 54
e 31 56
e 31 57
e 31 60
e 31 72
e 31 76
e 31 78
e 31 84
e 31 95
e 31 102
e 31 104
e 31 105
e 31 109
e 31 114
e 31 116
e 31 117
e 31 122
e 31 125
e 31 130
e 31 138
e 31 143
e 31 152
e 31 155
e 31 159
e 31 161
e 31 164
e 31 165
e 31 175
e 31 181
e 31 182
e 31 187
e 31 188
e 31 190
e 31 193
e 31 198
e 31 199
e 31 210
e 31 211
e 31 224
e 31 231
e 31 244
e 31 245
e 31 250
e 32 33
e 32 35
e 32 36
e 32 37
e 32 41
e 32 45
e 32 47
e 32 50
e 32 52
e 32 59
e 32 63
e 32 65
e 32 68
e 32 69
e 32 73
e 32 85
e 32 88
e 32 98
e 32 100
e 32 104
e 32 110
e 32 115
e 32 120
e 32 122
e 32 140
e 32 147
e 32 151
e 32 174
e 32 176
e 32 199
e 32 209
e 32 212
e 32 213
e 32 215
e 32 220
e 32 223
e 32 229
e 32 238
e 32 239
e 32 246
e 32 253
e 33 39
e 33 46
e 33 52
e 33 55
e 33 58
e 33 61
e 33 64
e 33 66
e 33 67
e 33 71
e 33 79
e 33 80
e 33 85
e 33 88
e 33 96
e 33 98
e 33 99
e 33 111
e 33 118
e 33 120
e 33 125
e 33 126
e 33 127
e 33 137
e 33 150
e 33 153
e 33 155
e 33 159
e 33 170
e 33 181
e 33 186
e 33 194
e 33 202
e 33 203
e 33 207
e 33 218
e 33 220
e 33 225
e 33 227
e 33 239
e 33 241
e 34 35
e 34 39
e 34 40
e 34 41
e 34 44
e 34 45
e 34 46
e 34 50
e 34 54
e 34 58
e 34 60
e 34 64
e 34 67
e 34 69
e 34 70
e 34 72
e 34 73
e 34 75
e 34 82
e 34 85
e 34 94
e 34 100
e 34 106
e 34 108
e 34 111
e 34 112
e 34 113
e 34 116
e 34 123
e 34 127
e 34 128
e 34 134
e 34 138
e 34 142
e 34 168
e 34 174
e 34 178
e 34 183
e 34 185
e 34 188
e 34 191
e 34 197
e 34 200
e 34 209
e 34 216
e 34 221
e 34 223
e 35 42
e 35 45
e 35 50
e 35 53
e 35 54
e 35 56
e 35 58
e 35 61
e 35 63
e 35 65
e 35 69
e 35 74
e 35 76
e 35 77
e 35 78
e 35 80
e 35 81
e 35 96
e 35 98
e 35 103
e 35 115
e 35 123
e 35 128
e 35 131
e 35 135
e 35 137
e 35 140
e 35 147
e 35 160
e 35 161
e 35 165
e 35 166
e 35 167
e 35 170
e 35 174
e 35 175
e 35 177
e 35 179
e 35 183
e 35 190
e 35 192
e 35 199
e 35 201
e 35 209
e 35 214
e 35 221
e 35 233
e 35 239
e 35 242
e 35 247
e 35 253
e 36 37
e 36 38
e 36 43
e 36 49
e 36 50
e 36 53
e 36 56
e 36 57
e 36 64
e 36 66
e 36 70
e 36 89
e 36 91
e 36 92
e 36 107
e 36 110
e 36 112
e 36 121
e 36 126
e 36 127
e 36 154
e 36 170
e 36 171
e 36 210
e 36 214
e 36 225
e 36 229
e 36 247
e 36 252
e 36 253
e 37 42
e 37 44
e 37 45
e 37 48
e 37 49
e 37 52
e 37 54
e 37 55
e 37 56
e 37 57
e 37 59
e 37 61
e 37 64
e 37 70
e 37 72
e 37 80
e 37 81
e 37 84
e 37 94
e 37 95
e 37 96
e 37 97
e 37 99
e 37 104
e 37 114
e 37 115
e 37 119
e 37 126
e 37 131
e 37 139
e 37 146
e 37 148
e 37 154
e 37 159
e 37 168
e 37 169
e 37 175
e 37 178
e 37 183
e 37 187
e 37 196
e 37 205
e 37 211
e 37 214
e 37 222
e 37 238
e 37 246
e 38 40
e 38 44
e 38 46
e 38 47
e 38 50
e 38 52
e 38 54
e 38 62
e 38 63
e 38 65
e 38 67
e 38 68
e 38 71
e 38 74
e 38 76
e 38 78
e 38 79
e 38 83
e 38 85
e 38 86
e 38 88
e 38 89
e 38 93
e 38 100
e 38 101
e 38 105
e 38 108
e 38 112
e 38 113
e 38 120
e 38 121
e 38 122
e 38 131
e 38 139
e 38 144
e 38 151
e 38 159
e 38 161
e 38 164
e 38 170
e 38 175
e 38 178
e 38 182
e 38 186
e 38 190
e 38 195
e 38 201
e 38 206
e 38 214
e 38 218
e 38 222
e 38 231
e 38 249
e 38 252
e 39 45
e 39 49
e 39 51
e 39 52
e 39 55
e 39 70
e 39 79
e 39 80
e 39 82
e 39 83
e 39 91
e 39 107
e 39 113
e 39 122
e 39 138
e 39 145
e 39 147
e 39 156
e 39 170
e 39 179
e 39 201
e 39 203
e 39 223
e 39 237
e 39 240
e 39 253
e 40 48
e 40 49
e 40 62
e 40 65
e 40 66
e 40 94
e 40 98
e 40 104
e 40 108
e 40 113
e 40 131
e 40 132
e 40 140
e 40 145
e 40 158
e 40 173
e 40 178
e 40 191
e 40 226
e 41 43
e 41 45
e 41 46
e 41 48
e 41 50
e 41 51
e 41 54
e 41 62
e 41 64
e 41 68
e 41 71
e 41 74
e 41 76
e 41 77
e 41 78
e 41 81
e 41 83
e 41 84
e 41 91
e 41 99
e 41 101
e 41 106
e 41 107
e 41 108
e 41 110
e 41 122
e 41 130
e 41 145
e 41 148
e 41 151
e 41 160
e 41 161
e 41 164
e 41 167
e 41 173
e 41 177
e 41 190
e 41 201
e 41 204
e 41 213
e 41 227
e 41 231
e 41 235
e 42 46
e 42 47
e 42 48
e 42 55
e 42 59
e 42 60
e 42 72
e 42 74
e 42 75
e 42 78
e 42 81
e 42 83
e 42 98
e 42 103
e 42 108
e 42 111
e 42 112
e 42 118
e 42 121
e 42 123
e 42 134
e 42 142
e 42 143
e 42 145
e 42 188
e 42 196
e 42 199
e 42 200
e 42 246
e 42 248
e 43 45
e 43 47
e 43 55
e 43 59
e 43 60
e 43 70
e 43 88
e 43 89
e 43 90
e 43 92
e 43 96
e 43 108
e 43 113
e 43 131
e 43 136
e 43 144
e 43 149
e 43 152
e 43 160
e 43 168
e 43 217
e 43 224
e 43 225
e 43 245
e 43 247
e 44 49
e 44 53
e 44 70
e 44 71
e 44 73
e 44 74
e 44 75
e 44 88
e 44 92
e 44 116
e 44 118
e 44 119
e 44 121
e 44 123
e 44 124
e 44 125
e 44 133
e 44 136
e 44 153
e 44 160
e 44 171
e 44 172
e 44 174
e 44 177
e 44 185
e 44 191
e 44 208
e 44 233
e 44 242
e 44 245
e 45 49
e 45 50
e 45 51
e 45 56
e 45 58
e 45 59
e 45 60
e 45 74
e 45 82
e 45 83
e 45 96
e 45 99
e 45 103
e 45 116
e 45 124
e 45 132
e 45 139
e 45 143
e 45 155
e 45 164
e 45 166
e 45 169
e 45 170
e 45 180
e 45 186
e 45 192
e 45 197
e 45 198
e 45 205
e 45 206
e 45 215
e 45 222
e 45 234
e 45 241
e 45 246
e 45 247
e 46 53
e 46 58
e 46 62
e 46 63
e 46 65
e 46 68
e 46 69
e 46 72
e 46 90
e 46 92
e 46 97
e 46 106
e 46 117
e 46 122
e 46 132
e 46 135
e 46 141
e 46 148
e 46 154
e 46 162
e 46 165
e 46 172
e 46 179
e 46 183
e 46 184
e 46 185
e 46 189
e 46 191
e 46 192
e 46 194
e 46 207
e 46 215
e 46 221
e 46 235
e 46 252
e 47 51
e 47 58
e 47 67
e 47 68
e 47 74
e 47 89
e 47 93
e 47 94
e 47 98
e 47 105
e 47 112
e 47 115
e 47 116
e 47 124
e 47 133
e 47 139
e 47 145
e 47 146
e 47 150
e 47 154
e 47 159
e 47 177
e 47 183
e 47 201
e 47 205
e 47 228
e 47 243
e 47 250
e 48 56
e 48 60
e 48 61
e 48 63
e 48 65
e 48 67
e 48 76
e 48 80
e 48 86
e 48 88
e 48 93
e 48 97
e 48 99
e 48 104
e 48 106
e 48 114
e 48 126
e 48 129
e 48 134
e 48 137
e 48 149
e 48 151
e 48 159
e 48 168
e 48 169
e 48 175
e 48 176
e 48 179
e 48 180
e 48 181
e 48 188
e 48 207
e 48 229
e 48 230
e 48 238
e 48 247
e 49 53
e 49 54
e 49 57
e 49 60
e 49 62
e 49 73
e 49 81
e 49 82
e 49 93
e 49 102
e 49 108
e 49 111
e 49 113
e 49 131
e 49 132
e 49 133
e 49 145
e 49 150
e 49 159
e 49 177
e 49 181
e 49 198
e 49 208
e 49 211
e 49 214
e 49 251
e 50 51
e 50 56
e 50 58
e 50 66
e 50 78
e 50 79
e 50 85
e 50 91
e 50 92
e 50 98
e 50 99
e 50 105
e 50 109
e 50 115
e 50 126
e 50 128
e 50 130
e 50 184
e 50 189
e 50 199
e 50 215
e 50 229
e 50 245
e 51 53
e 51 62
e 51 64
e 51 70
e 51 74
e 51 82
e 51 90
e 51 102
e 51 110
e 51 145
e 51 150
e 51 160
e 51 163
e 51 174
e 51 177
e 51 178
e 51 190
e 51 191
e 51 194
e 51 204
e 51 210
e 51 237
e 52 58
e 52 59
e 52 65
e 52 66
e 52 67
e 52 72
e 52 76
e 52 79
e 52 86
e 52 93
e 52 94
e 52 99
e 52 102
e 52 104
e 52 105
e 52 109
e 52 114
e 52 115
e 52 118
e 52 119
e 52 120
e 52 126
e 52 131
e 52 164
e 52 169
e 52 178
e 52 187
e 52 202
e 52 206
e 52 248
e 53 56
e 53 57
e 53 66
e 53 67
e 53 76
e 53 82
e 53 84
e 53 91
e 53 95
e 53 96
e 53 101
e 53 105
e 53 108
e 53 118
e 53 127
e 53 133
e 53 135
e 53 143
e 53 146
e 53 163
e 53 166
e 53 169
e 53 193
e 53 205
e 53 207
e 53 208
e 53 210
e 53 211
e 53 212
e 53 213
e 53 223
e 54 70
e 54 77
e 54 84
e 54 94
e 54 100
e 54 113
e 54 127
e 54 155
e 54 156
e 54 157
e 54 160
e 54 173
e 54 186
e 54 196
e 54 200
e 54 206
e 54 221
e 54 229
e 54 231
e 54 242
e 54 244
e 55 57
e 55 63
e 55 67
e 55 69
e 55 74
e 55 104
e 55 109
e 55 111
e 55 116
e 55 129
e 55 133
e 55 135
e 55 137
e 55 194
e 55 198
e 55 199
e 55 217
e 55 230
e 55 237
e 55 244
e 55 251
e 56 57
e 56 60
e 56 61
e 56 69
e 56 71
e 56 77
e 56 81
e 56 97
e 56 107
e 56 118
e 56 120
e 56 134
e 56 137
e 56 139
e 56 140
e 56 155
e 56 167
e 56 172
e 56 185
e 56 197
e 56 211
e 56 237
e 56 240
e 56 246
e 57 59
e 57 62
e 57 64
e 57 67
e 57 77
e 57 81
e 57 84
e 57 85
e 57 90
e 57 92
e 57 96
e 57 109
e 57 110
e 57 111
e 57 123
e 57 129
e 57 149
e 57 151
e 57 155
e 57 161
e 57 178
e 57 182
e 57 183
e 57 188
e 57 192
e 57 202
e 57 203
e 57 205
e 57 215
e 57 227
e 57 230
e 57 234
e 57 237
e 57 244
e 57 246
e 57 248
e 58 59
e 58 60
e 58 61
e 58 71
e 58 73
e 58 79
e 58 90
e 58 93
e 58 94
e 58 95
e 58 97
e 58 107
e 58 109
e 58 110
e 58 113
e 58 116
e 58 117
e 58 121
e 58 140
e 58 145
e 58 156
e 58 157
e 58 173
e 58 174
e 58 200
e 58 203
e 59 66
e 59 86
e 59 87
e 59 91
e 59 95
e 59 97
e 59 99
e 59 114
e 59 152
e 59 155
e 59 160
e 59 163
e 59 172
e 59 181
e 59 184
e 59 187
e 59 194
e 59 209
e 59 214
e 59 231
e 59 249
e 60 63
e 60 64
e 60 79
e 60 86
e 60 94
e 60 101
e 60 103
e 60 114
e 60 122
e 60 151
e 60 152
e 60 157
e 60 168
e 60 171
e 60 176
e 60 196
e 60 201
e 60 219
e 60 229
e 60 235
e 60 240
e 61 62
e 61 66
e 61 77
e 61 87
e 61 95
e 61 103
e 61 114
e 61 142
e 61 149
e 61 172
e 61 215
e 61 216
e 61 242
e 62 70
e 62 75
e 62 78
e 62 80
e 62 83
e 62 102
e 62 116
e 62 119
e 62 127
e 62 141
e 62 147
e 62 150
e 62 153
e 62 172
e 62 174
e 62 185
e 62 196
e 62 200
e 62 207
e 62 231
e 62 240
e 62 242
e 63 83
e 63 114
e 63 118
e 63 123
e 63 142
e 63 148
e 63 157
e 63 166
e 63 172
e 63 181
e 63 197
e 63 218
e 63 224
e 64 71
e 64 72
e 64 74
e 64 81
e 64 87
e 64 97
e 64 101
e 64 104
e 64 108
e 64 111
e 64 113
e 64 124
e 64 132
e 64 137
e 64 144
e 64 149
e 64 163
e 64 165
e 64 178
e 64 181
e 64 200
e 64 210
e 64 250
e 65 67
e 65 81
e 65 83
e 65 96
e 65 103
e 65 104
e 65 125
e 65 129
e 65 132
e 65 134
e 65 148
e 65 159
e 65 196
e 65 227
e 65 237
e 65 251
e 66 67
e 66 69
e 66 71
e 66 89
e 66 90
e 66 101
e 66 102
e 66 140
e 66 143
e 66 151
e 66 191
e 66 206
e 66 211
e 66 220
e 66 238
e 67 72
e 67 75
e 67 84
e 67 126
e 67 128
e 67 130
e 67 136
e 67 142
e 67 149
e 67 153
e 67 169
e 67 180
e 67 200
e 68 71
e 68 73
e 68 75
e 68 76
e 68 79
e 68 85
e 68 91
e 68 93
e 68 106
e 68 112
e 68 116
e 68 124
e 68 125
e 68 137
e 68 142
e 68 146
e 68 159
e 68 187
e 68 209
e 68 210
e 68 240
e 69 71
e 69 75
e 69 76
e 69 78
e 69 86
e 69 87
e 69 94
e 69 95
e 69 102
e 69 103
e 69 106
e 69 115
e 69 120
e 69 122
e 69 125
e 69 133
e 69 136
e 69 144
e 69 147
e 69 154
e 69 180
e 69 193
e 69 197
e 69 200
e 69 202
e 70 71
e 70 78
e 70 80
e 70 84
e 70 87
e 70 90
e 70 102
e 70 112
e 70 114
e 70 123
e 70 136
e 70 143
e 70 156
e 70 161
e 70 165
e 70 167
e 70 168
e 70 175
e 70 179
e 70 182
e 70 218
e 70 228
e 70 239
e 70 247
e 70 250
e 71 77
e 71 79
e 71 85
e 71 87
e 71 91
e 71 92
e 71 107
e 71 109
e 71 124
e 71 126
e 71 132
e 71 138
e 71 143
e 71 144
e 71 151
e 71 157
e 71 164
e 71 165
e 71 167
e 71 169
e 71 179
e 71 203
e 71 207
e 71 218
e 71 226
e 71 230
e 71 235
e 71 252
e 72 95
e 72 98
e 72 111
e 72 117
e 72 124
e 72 129
e 72 134
e 72 151
e 72 152
e 72 170
e 72 176
e 72 182
e 72 191
e 72 211
e 72 248
e 73 93
e 73 100
e 73 121
e 73 126
e 73 153
e 73 157
e 73 158
e 73 168
e 73 207
e 73 226
e 73 233
e 73 239
e 73 247
e 74 85
e 74 88
e 74 91
e 74 95
e 74 120
e 74 123
e 74 125
e 74 132
e 74 153
e 74 195
e 74 199
e 74 203
e 74 204
e 74 222
e 74 232
e 74 247
e 74 251
e 74 252
e 75 76
e 75 86
e 75 96
e 75 98
e 75 100
e 75 104
e 75 129
e 75 154
e 75 180
e 75 187
e 75 202
e 75 222
e 75 232
e 75 251
e 75 253
e 76 89
e 76 90
e 76 97
e 76 107
e 76 136
e 76 140
e 76 160
e 76 182
e 76 201
e 76 203
e 76 213
e 76 228
e 76 233
e 76 235
e 77 78
e 77 85
e 77 96
e 77 99
e 77 119
e 77 125
e 77 141
e 77 147
e 77 173
e 77 175
e 77 178
e 77 181
e 77 182
e 77 223
e 77 224
e 77 227
e 77 241
e 77 250
e 78 90
e 78 92
e 78 95
e 78 98
e 78 116
e 78 138
e 78 158
e 78 174
e 78 233
e 78 248
e 79 105
e 79 106
e 79 109
e 79 113
e 79 141
e 79 153
e 79 156
e 79 182
e 79 208
e 79 209
e 79 222
e 79 228
e 80 90
e 80 101
e 80 136
e 80 146
e 80 162
e 80 170
e 80 184
e 80 186
e 80 196
e 80 212
e 80 241
e 81 82
e 81 89
e 81 99
e 81 100
e 81 105
e 81 115
e 81 121
e 81 123
e 81 130
e 81 138
e 81 140
e 81 143
e 81 157
e 81 162
e 81 171
e 81 174
e 81 180
e 81 182
e 81 183
e 81 186
e 81 205
e 81 208
e 81 222
e 81 227
e 81 234
e 81 238
e 81 243
e 81 249
e 82 83
e 82 86
e 82 92
e 82 108
e 82 109
e 82 130
e 82 158
e 82 165
e 82 170
e 82 218
e 82 226
e 82 232
e 82 244
e 83 91
e 83 104
e 83 121
e 83 123
e 83 130
e 83 158
e 83 161
e 83 204
e 83 244
e 84 107
e 84 135
e 84 139
e 84 151
e 84 163
e 84 166
e 84 201
e 84 215
e 84 246
e 85 86
e 85 87
e 85 94
e 85 107
e 85 113
e 85 116
e 85 121
e 85 125
e 85 137
e 85 180
e 85 185
e 85 187
e 85 206
e 85 212
e 85 223
e 86 87
e 86 94
e 86 130
e 86 138
e 86 142
e 86 158
e 86 160
e 86 181
e 86 190
e 86 215
e 86 232
e 87 115
e 87 124
e 87 136
e 87 167
e 87 193
e 87 226
e 87 239
e 88 90
e 88 93
e 88 124
e 88 127
e 88 137
e 88 139
e 88 145
e 88 146
e 88 162
e 88 187
e 88 194
e 88 200
e 88 201
e 88 206
e 88 218
e 89 93
e 89 100
e 89 101
e 89 104
e 89 114
e 89 121
e 89 128
e 89 134
e 89 147
e 89 149
e 89 150
e 89 156
e 89 157
e 89 191
e 89 194
e 89 207
e 89 217
e 89 223
e 89 240
e 89 250
e 90 95
e 90 96
e 90 99
e 90 101
e 90 122
e 90 127
e 90 129
e 90 155
e 90 157
e 90 170
e 90 179
e 90 199
e 90 203
e 90 213
e 90 233
e 90 240
e 90 241
e 91 93
e 91 95
e 91 105
e 91 118
e 91 121
e 91 127
e 91 138
e 91 141
e 91 147
e 91 168
e 91 184
e 91 194
e 91 209
e 91 210
e 91 215
e 91 217
e 91 222
e 91 240
e 92 101
e 92 104
e 92 110
e 92 122
e 92 138
e 92 147
e 92 148
e 92 149
e 92 158
e 92 171
e 92 172
e 92 173
e 92 176
e 92 188
e 92 194
e 92 196
e 92 201
e 92 205
e 92 219
e 92 221
e 92 224
e 92 249
e 93 107
e 93 116
e 93 122
e 93 127
e 93 128
e 93 143
e 93 146
e 93 156
e 93 166
e 93 168
e 93 192
e 93 222
e 93 234
e 94 108
e 94 119
e 94 125
e 94 139
e 94 141
e 94 144
e 94 153
e 94 159
e 94 174
e 94 192
e 94 204
e 95 100
e 95 103
e 95 105
e 95 108
e 95 114
e 95 118
e 95 119
e 95 120
e 95 147
e 95 149
e 95 155
e 95 171
e 95 174
e 95 177
e 95 183
e 95 188
e 95 192
e 95 212
e 95 218
e 95 241
e 95 251
e 96 97
e 96 101
e 96 103
e 96 110
e 96 125
e 96 129
e 96 130
e 96 133
e 96 135
e 96 149
e 96 153
e 96 182
e 96 185
e 96 228
e 96 234
e 96 235
e 96 249
e 97 106
e 97 133
e 97 150
e 97 160
e 97 173
e 97 178
e 97 185
e 97 197
e 97 219
e 97 233
e 97 242
e 98 115
e 98 138
e 98 146
e 98 165
e 98 166
e 98 173
e 98 180
e 98 189
e 98 193
e 98 207
e 98 224
e 98 225
e 99 102
e 99 105
e 99 120
e 99 129
e 99 141
e 99 156
e 99 157
e 99 176
e 99 181
e 99 207
e 99 220
e 99 222
e 99 228
e 100 103
e 100 118
e 100 128
e 100 142
e 100 189
e 100 221
e 100 252
e 101 117
e 101 118
e 101 212
e 101 241
e 101 252
e 102 105
e 102 107
e 102 116
e 102 119
e 102 153
e 102 157
e 102 167
e 102 175
e 102 176
e 102 183
e 102 192
e 102 198
e 102 208
e 102 216
e 102 221
e 102 229
e 102 235
e 102 242
e 102 247
e 102 250
e 103 106
e 103 111
e 103 134
e 103 144
e 103 148
e 103 150
e 103 159
e 103 204
e 103 217
e 103 230
e 104 133
e 104 141
e 104 143
e 104 158
e 104 184
e 104 206
e 104 210
e 104 245
e 105 110
e 105 111
e 105 114
e 105 149
e 105 153
e 105 161
e 105 177
e 105 190
e 105 208
e 105 214
e 105 233
e 106 115
e 106 121
e 106 140
e 106 156
e 106 160
e 106 166
e 106 171
e 106 237
e 106 241
e 107 109
e 107 114
e 107 116
e 107 135
e 107 151
e 107 167
e 107 186
e 107 217
e 107 236
e 108 117
e 108 120
e 108 135
e 108 149
e 108 170
e 108 176
e 108 179
e 108 202
e 108 214
e 108 236
e 108 246
e 109 162
e 109 193
e 109 198
e 109 231
e 109 246
e 110 137
e 110 148
e 110 150
e 110 189
e 110 193
e 110 226
e 110 248
e 111 113
e 111 115
e 111 129
e 111 148
e 111 154
e 111 169
e 111 173
e 111 181
e 111 189
e 111 206
e 111 225
e 111 236
e 111 241
e 112 117
e 112 127
e 112 152
e 112 155
e 112 162
e 112 168
e 112 169
e 112 173
e 112 179
e 112 185
e 112 191
e 112 202
e 112 206
e 112 212
e 112 235
e 113 122
e 113 184
e 113 210
e 114 136
e 114 150
e 114 151
e 114 185
e 114 186
e 114 202
e 114 208
e 114 219
e 114 228
e 114 230
e 114 245
e 115 129
e 115 130
e 115 139
e 115 150
e 115 159
e 115 200
e 115 216
e 115 233
e 116 117
e 116 129
e 116 164
e 116 173
e 116 189
e 116 205
e 116 249
e 117 122
e 117 152
e 117 169
e 117 210
e 117 218
e 117 219
e 118 119
e 118 133
e 118 142
e 118 152
e 118 155
e 118 163
e 118 177
e 118 186
e 118 189
e 118 231
e 118 240
e 119 132
e 119 172
e 119 195
e 119 221
e 120 133
e 120 144
e 120 152
e 120 191
e 120 214
e 120 224
e 121 139
e 121 166
e 121 177
e 121 186
e 121 187
e 121 191
e 121 212
e 121 228
e 121 230
e 121 241
e 122 135
e 122 139
e 122 141
e 122 169
e 122 233
e 122 234
e 122 240
e 123 161
e 123 162
e 123 191
e 123 220
e 124 146
e 124 199
e 124 236
e 125 135
e 125 162
e 125 228
e 125 231
e 125 239
e 125 247
e 125 249
e 126 128
e 126 198
e 126 220
e 126 226
e 126 243
e 127 140
e 127 146
e 127 158
e 127 164
e 127 171
e 127 181
e 127 188
e 127 213
e 127 215
e 127 242
e 127 243
e 127 249
e 128 147
e 128 148
e 128 158
e 128 175
e 128 176
e 128 187
e 128 190
e 128 193
e 128 208
e 128 221
e 128 244
e 128 248
e 129 142
e 129 149
e 129 172
e 129 185
e 129 188
e 129 201
e 129 225
e 129 236
e 130 146
e 130 156
e 130 193
e 130 227
e 131 154
e 131 161
e 131 166
e 131 183
e 131 189
e 131 194
e 131 198
e 131 204
e 131 210
e 131 226
e 131 250
e 132 163
e 132 172
e 132 199
e 132 217
e 132 232
e 133 134
e 133 152
e 133 156
e 133 157
e 133 160
e 133 163
e 133 176
e 133 236
e 133 245
e 134 145
e 134 160
e 134 172
e 134 178
e 134 181
e 134 192
e 134 205
e 134 223
e 134 231
e 134 241
e 135 142
e 135 150
e 135 168
e 135 197
e 135 202
e 135 214
e 135 226
e 135 230
e 135 236
e 136 142
e 136 151
e 136 162
e 136 163
e 136 167
e 136 199
e 136 215
e 136 246
e 137 153
e 137 166
e 137 183
e 137 225
e 137 248
e 138 156
e 138 164
e 138 193
e 138 196
e 138 225
e 138 227
e 138 249
e 139 153
e 139 158
e 139 176
e 139 217
e 140 155
e 140 167
e 140 168
e 140 211
e 140 228
e 140 252
e 141 155
e 141 173
e 141 186
e 141 190
e 141 205
e 141 223
e 141 224
e 141 249
e 141 251
e 142 165
e 142 175
e 142 209
e 142 211
e 142 217
e 142 230
e 143 170
e 143 188
e 143 195
e 143 197
e 143 199
e 143 205
e 143 243
e 143 253
e 144 147
e 144 151
e 144 212
e 144 214
e 145 178
e 145 184
e 145 209
e 145 236
e 145 245
e 146 198
e 146 227
e 146 251
e 147 148
e 147 154
e 147 212
e 147 243
e 148 187
e 148 221
e 148 229
e 148 238
e 148 245
e 149 162
e 149 165
e 149 173
e 149 180
e 149 195
e 149 250
e 150 161
e 150 182
e 150 196
e 150 206
e 150 219
e 150 227
e 151 180
e 151 192
e 151 195
e 151 202
e 151 207
e 151 218
e 151 220
e 151 247
e 152 171
e 152 203
e 152 232
e 152 246
e 152 247
e 153 166
e 153 195
e 153 207
e 153 220
e 153 226
e 154 182
e 154 184
e 154 203
e 154 214
e 154 221
e 154 222
e 154 227
e 154 229
e 155 162
e 155 163
e 155 174
e 155 179
e 155 190
e 155 192
e 155 194
e 155 208
e 155 213
e 155 232
e 155 250
e 156 171
e 156 185
e 156 188
e 156 211
e 156 217
e 156 250
e 157 168
e 157 171
e 157 211
e 157 237
e 158 196
e 158 238
e 159 170
e 159 195
e 159 203
e 160 238
e 161 182
e 161 184
e 162 167
e 162 179
e 162 198
e 162 204
e 162 224
e 162 252
e 163 166
e 163 167
e 163 177
e 163 184
e 163 190
e 163 191
e 163 198
e 163 199
e 163 213
e 163 216
e 163 235
e 163 250
e 164 171
e 164 186
e 164 212
e 165 174
e 165 219
e 165 223
e 165 244
e 166 192
e 166 208
e 166 219
e 166 242
e 167 175
e 167 207
e 167 210
e 167 215
e 167 232
e 168 234
e 170 182
e 170 188
e 170 205
e 170 228
e 170 243
e 170 251
e 171 207
e 172 187
e 172 241
e 173 200
e 173 214
e 173 219
e 173 226
e 173 229
e 173 243
e 174 178
e 174 180
e 174 208
e 175 199
e 175 211
e 175 220
e 175 223
e 175 227
e 175 237
e 175 238
e 175 245
e 175 247
e 176 203
e 177 209
e 177 213
e 177 228
e 177 234
e 178 188
e 178 198
e 178 210
e 178 229
e 180 193
e 180 206
e 180 207
e 180 208
e 180 238
e 180 245
e 180 252
e 181 202
e 181 205
e 181 220
e 181 233
e 181 236
e 182 217
e 182 236
e 183 202
e 183 208
e 183 211
e 183 212
e 183 213
e 183 218
e 183 223
e 183 229
e 183 232
e 184 191
e 184 236
e 184 244
e 185 187
e 185 231
e 186 211
e 186 236
e 187 192
e 187 221
e 188 189
e 188 203
e 188 220
e 189 202
e 189 204
e 189 224
e 189 228
e 192 195
e 192 202
e 192 230
e 192 232
e 193 195
e 193 196
e 193 224
e 194 235
e 194 237
e 194 239
e 194 244
e 194 253
e 195 199
e 195 216
e 195 233
e 195 237
e 195 253
e 196 248
e 197 198
e 197 213
e 199 210
e 199 235
e 200 235
e 201 229
e 201 232
e 201 239
e 201 250
e 201 251
e 202 243
e 202 252
e 203 228
e 204 216
e 204 221
e 205 232
e 205 234
e 205 249
e 206 215
e 206 216
e 207 233
e 208 215
e 210 231
e 210 234
e 213 218
e 213 245
e 214 220
e 214 230
e 215 218
e 215 219
e 215 230
e 215 236
e 217 252
e 218 222
e 218 234
e 218 240
e 219 238
e 220 237
e 220 239
e 221 241
e 221 243
e 221 246
e 221 251
e 222 228
e 222 229
e 222 249
e 223 237
e 224 242
e 224 245
e 224 251
e 226 248
e 226 251
e 226 253
e 229 242
e 231 242
e 232 240
e 233 239
e 235 244
e 237 243
e 239 243
e 239 249
e 239 253
e 240 253
e 242 249
e 252 253
